#from Caballero, Grossmann (Design of distillation sequences: from conventional to fully thermally coupled distillation systems, Computers & Chemical Engineering)
#example 3

set C := 1, 2, 3, 4, 5;

param alpha := 1 4.1 2 3.6 3 2.1 4 1.42 5 1.0;